language ESSENCE' 1.0
letting AssignmentMatrix be [[0, 0, 0, 0, 0, 0, 1, 0, 0, 0, 1, 1, 1, 1, 1, 0, 1, 0, 1], 
[1, 0, 0, 1, 0, 1, 0, 1, 0, 0, 0, 1, 0, 0, 0, 0, 1, 0, 0], 
[0, 0, 0, 0, 0, 0, 0, 0, 0, 0, 0, 0, 0, 0, 0, 0, 0, 0, 0], 
[0, 0, 0, 0, 0, 0, 0, 0, 0, 1, 0, 0, 0, 0, 0, 1, 0, 1, 0], 
[0, 1, 0, 0, 0, 0, 0, 0, 0, 0, 0, 0, 0, 0, 0, 0, 0, 0, 1]]
letting CPU be [2, 4, 43, 2, 52, 2, 2, 2, 48, 4, 2, 4, 2, 2, 2, 4, 4, 4, 8]
letting Memory be [3750, 7500, 244003, 3750, 244007, 3750, 3750, 3750, 488005, 7500, 3750, 15000, 3750, 3750, 3750, 7500, 15000, 7500, 15000]
letting Price be [116, 210, 1, 116, 12, 116, 116, 116, 0, 210, 116, 350, 116, 116, 116, 210, 350, 210, 420]
letting Storage be [2000, 2000, 12003, 2000, 12007, 2000, 2000, 2000, 12008, 2000, 2000, 4000, 2000, 2000, 2000, 2000, 4000, 2000, 2000]
letting VMType be [433, 341, 1, 433, 1, 433, 433, 433, 1, 341, 433, 316, 433, 433, 433, 341, 316, 341, 278]
